c WARNING: for repeatability, setting FPU to use double precision
d VARIABLES            222532       
d CONSTRAINTS          823132       
c ============================[ Problem Statistics ]=============================
c |                                                                             |
c |  Number of variables:        222532                                         |
c |  Number of clauses:          823132                                         |
c |  Parse time:                   0.13 s                                       |
c |                                                                             |
c ============================[ Search Statistics ]==============================
c | Conflicts |          ORIGINAL         |          LEARNT          | Progress |
c |           |    Vars  Clauses Literals |    Limit  Clauses Lit/Cl |          |
c ===============================================================================
c |       100 |  183067   721106  1810279 |   264405      100     80 | 17.735 % |
c |       250 |  183067   721106  1810279 |   290846      250     70 | 17.735 % |
c |       475 |  183067   721106  1810279 |   319930      475     38 | 17.735 % |
c |       812 |  183067   721106  1810279 |   351923      812     25 | 17.735 % |
c |      1318 |  183067   721106  1810279 |   387116     1318     20 | 17.735 % |
c |      2077 |  183067   721106  1810279 |   425827     2077     25 | 17.735 % |
c |      3216 |  183067   721106  1810279 |   468410     3216     31 | 17.735 % |
c |      4924 |  183067   721106  1810279 |   515251     4924     29 | 17.735 % |
c |      7486 |  183067   721106  1810279 |   566776     7486     32 | 17.735 % |
c |     11330 |  183067   721106  1810279 |   623454    11330     46 | 17.735 % |
c |     17096 |  183067   721106  1810279 |   685799    17096     40 | 17.735 % |
c |     25745 |  183067   721106  1810279 |   754379    25745     43 | 17.735 % |
c |     38719 |  183053   720960  1809926 |   829817    38653     46 | 17.741 % |
c ===============================================================================
c restarts              : 142
c conflicts             : 47543          (2057 /sec)
c decisions             : 616095         (0.00 % random) (26655 /sec)
c propagations          : 150348313      (6504799 /sec)
c conflict literals     : 2658201        (19.74 % deleted)
d RESTARTS             142
d FAILURES             47543        
d NODES                616095       
d BACKTRACKS           616095       
d PROPAGATIONS         150348313    
d NOGOODSIZE           55.91 
d MEMORY               82.00 
d TIME                 23.1134 

s UNSATISFIABLE
